p tw 100 16501 2 
1 3 
1 4 
1 5 
1 6 
1 7 
1 8 
1 9 
1 10 
1 11 
1 12 
1 13 
1 14 
1 15 
1 16 
1 17 
1 18 
1 19 
1 20 
1 21 
1 22 
1 23 
1 30 
1 40 
1 48 
1 54 
1 61 
1 66 
1 77 
1 85 
1 86 
1 87 
1 88 
2 3 
2 4 
2 5 
2 6 
2 7 
2 8 
2 9 
2 10 
2 11 
2 12 
2 13 
2 15 
2 24 
2 25 
2 26 
2 27 
2 28 
2 29 
2 30 
2 31 
2 32 
2 33 
2 42 
2 51 
2 61 
2 68 
2 71 
2 83 
2 89 
2 94 
2 97 
2 100 
3 4 
3 5 
3 6 
3 7 
3 8 
3 9 
3 10 
3 11 
3 12 
3 13 
3 19 
3 26 
3 34 
3 35 
3 36 
3 37 
3 38 
3 39 
3 40 
3 41 
3 42 
3 43 
3 50 
3 57 
3 70 
3 74 
3 84 
3 88 
3 89 
3 90 
3 99 
4 5 
4 6 
4 7 
4 8 
4 9 
4 10 
4 11 
4 12 
4 14 
4 23 
4 24 
4 31 
4 34 
4 43 
4 44 
4 45 
4 46 
4 47 
4 48 
4 49 
4 50 
4 51 
4 53 
4 63 
4 75 
4 77 
4 84 
4 91 
4 93 
4 100 
5 6 
5 7 
5 8 
5 9 
5 10 
5 11 
5 12 
5 15 
5 18 
5 25 
5 27 
5 35 
5 39 
5 44 
5 48 
5 52 
5 53 
5 54 
5 55 
5 56 
5 57 
5 58 
5 60 
5 76 
5 80 
5 81 
5 82 
5 83 
5 84 
6 7 
6 8 
6 9 
6 10 
6 11 
6 12 
6 16 
6 22 
6 26 
6 33 
6 35 
6 36 
6 45 
6 51 
6 52 
6 59 
6 60 
6 61 
6 62 
6 63 
6 64 
6 66 
6 74 
6 78 
6 82 
6 91 
6 95 
6 98 
7 8 
7 9 
7 10 
7 11 
7 12 
7 17 
7 19 
7 27 
7 29 
7 37 
7 38 
7 45 
7 47 
7 53 
7 55 
7 59 
7 65 
7 66 
7 67 
7 68 
7 69 
7 70 
7 71 
7 76 
7 77 
7 78 
7 79 
8 9 
8 10 
8 11 
8 12 
8 18 
8 20 
8 28 
8 31 
8 36 
8 41 
8 46 
8 49 
8 54 
8 56 
8 62 
8 65 
8 67 
8 71 
8 72 
8 73 
8 74 
8 75 
8 78 
8 80 
8 85 
8 89 
9 10 
9 11 
9 12 
9 16 
9 21 
9 25 
9 32 
9 38 
9 39 
9 46 
9 47 
9 57 
9 62 
9 68 
9 69 
9 72 
9 81 
9 85 
9 86 
9 90 
9 91 
9 92 
9 93 
9 94 
9 95 
10 11 
10 12 
10 14 
10 17 
10 32 
10 33 
10 40 
10 42 
10 49 
10 52 
10 58 
10 64 
10 67 
10 72 
10 73 
10 76 
10 79 
10 82 
10 87 
10 90 
10 93 
10 96 
10 99 
10 100 
11 12 
11 22 
11 23 
11 28 
11 29 
11 34 
11 41 
11 44 
11 56 
11 63 
11 64 
11 69 
11 70 
11 73 
11 79 
11 81 
11 83 
11 86 
11 88 
11 92 
11 96 
11 97 
11 98 
12 20 
12 21 
12 24 
12 30 
12 37 
12 43 
12 50 
12 55 
12 58 
12 59 
12 60 
12 65 
12 75 
12 80 
12 87 
12 92 
12 94 
12 95 
12 96 
12 97 
12 98 
12 99 
13 14 
13 15 
13 16 
13 17 
13 18 
13 19 
13 20 
13 21 
13 22 
13 23 
13 24 
13 25 
13 26 
13 27 
13 28 
13 29 
13 30 
13 31 
13 32 
13 33 
13 34 
13 35 
13 36 
13 37 
13 38 
13 39 
13 40 
13 41 
13 42 
13 43 
14 15 
14 16 
14 17 
14 18 
14 19 
14 20 
14 21 
14 22 
14 23 
14 24 
14 33 
14 34 
14 42 
14 44 
14 45 
14 46 
14 47 
14 48 
14 49 
14 50 
14 51 
14 52 
14 67 
14 73 
14 76 
14 87 
14 90 
14 93 
14 96 
15 16 
15 17 
15 18 
15 19 
15 20 
15 21 
15 22 
15 23 
15 25 
15 35 
15 42 
15 44 
15 51 
15 52 
15 53 
15 54 
15 55 
15 56 
15 57 
15 58 
15 61 
15 68 
15 71 
15 83 
15 89 
15 94 
15 97 
15 100 
16 17 
16 18 
16 19 
16 20 
16 21 
16 22 
16 23 
16 26 
16 32 
16 36 
16 38 
16 45 
16 46 
16 52 
16 57 
16 59 
16 60 
16 61 
16 62 
16 63 
16 64 
16 69 
16 81 
16 85 
16 93 
16 94 
16 95 
17 18 
17 19 
17 20 
17 21 
17 22 
17 23 
17 27 
17 32 
17 37 
17 40 
17 45 
17 49 
17 53 
17 58 
17 64 
17 65 
17 66 
17 67 
17 68 
17 69 
17 70 
17 72 
17 79 
17 82 
17 99 
17 100 
18 19 
18 20 
18 21 
18 22 
18 23 
18 27 
18 28 
18 36 
18 39 
18 46 
18 48 
18 54 
18 60 
18 65 
18 71 
18 72 
18 73 
18 74 
18 75 
18 76 
18 80 
18 81 
18 82 
18 83 
18 84 
19 20 
19 21 
19 22 
19 23 
19 26 
19 29 
19 38 
19 47 
19 50 
19 55 
19 57 
19 59 
19 70 
19 71 
19 74 
19 76 
19 77 
19 78 
19 79 
19 84 
19 88 
19 89 
19 90 
19 99 
20 21 
20 22 
20 23 
20 24 
20 31 
20 37 
20 41 
20 49 
20 55 
20 56 
20 60 
20 62 
20 67 
20 75 
20 78 
20 80 
20 85 
20 87 
20 89 
20 92 
20 95 
20 97 
20 99 
21 22 
21 23 
21 25 
21 30 
21 39 
21 43 
21 47 
21 50 
21 58 
21 59 
21 62 
21 65 
21 68 
21 72 
21 80 
21 86 
21 90 
21 91 
21 92 
21 94 
21 96 
21 98 
22 23 
22 28 
22 33 
22 35 
22 41 
22 44 
22 51 
22 63 
22 66 
22 70 
22 74 
22 78 
22 79 
22 81 
22 82 
22 86 
22 91 
22 95 
22 96 
22 97 
22 98 
23 29 
23 31 
23 34 
23 43 
23 53 
23 56 
23 63 
23 64 
23 69 
23 73 
23 75 
23 77 
23 83 
23 84 
23 88 
23 91 
23 92 
23 93 
23 98 
23 100 
24 25 
24 26 
24 27 
24 28 
24 29 
24 30 
24 31 
24 32 
24 33 
24 34 
24 37 
24 44 
24 45 
24 46 
24 47 
24 48 
24 49 
24 50 
24 51 
24 55 
24 60 
24 75 
24 87 
24 92 
24 95 
24 97 
24 99 
25 26 
25 27 
25 28 
25 29 
25 30 
25 31 
25 32 
25 33 
25 35 
25 39 
25 44 
25 47 
25 52 
25 53 
25 54 
25 55 
25 56 
25 57 
25 58 
25 62 
25 68 
25 72 
25 86 
25 90 
25 91 
25 92 
26 27 
26 28 
26 29 
26 30 
26 31 
26 32 
26 33 
26 36 
26 45 
26 50 
26 52 
26 57 
26 59 
26 60 
26 61 
26 62 
26 63 
26 64 
26 70 
26 74 
26 84 
26 88 
26 89 
26 90 
26 99 
27 28 
27 29 
27 30 
27 31 
27 32 
27 33 
27 37 
27 39 
27 45 
27 48 
27 53 
27 60 
27 65 
27 66 
27 67 
27 68 
27 69 
27 70 
27 76 
27 80 
27 81 
27 82 
27 83 
27 84 
28 29 
28 30 
28 31 
28 32 
28 33 
28 36 
28 41 
28 44 
28 46 
28 54 
28 63 
28 65 
28 70 
28 71 
28 72 
28 73 
28 74 
28 75 
28 79 
28 81 
28 86 
28 96 
28 97 
29 30 
29 31 
29 32 
29 33 
29 34 
29 38 
29 47 
29 55 
29 56 
29 59 
29 64 
29 69 
29 71 
29 73 
29 76 
29 77 
29 78 
29 79 
29 83 
29 88 
29 92 
29 98 
30 31 
30 32 
30 33 
30 40 
30 43 
30 48 
30 50 
30 54 
30 58 
30 59 
30 61 
30 65 
30 66 
30 77 
30 80 
30 85 
30 86 
30 87 
30 88 
30 94 
30 96 
30 98 
31 32 
31 33 
31 41 
31 43 
31 49 
31 53 
31 56 
31 62 
31 63 
31 67 
31 75 
31 77 
31 78 
31 80 
31 84 
31 85 
31 89 
31 91 
31 93 
31 100 
32 33 
32 38 
32 40 
32 46 
32 49 
32 57 
32 58 
32 64 
32 69 
32 72 
32 79 
32 81 
32 82 
32 85 
32 93 
32 94 
32 95 
32 99 
32 100 
33 35 
33 42 
33 51 
33 52 
33 66 
33 67 
33 73 
33 74 
33 76 
33 78 
33 82 
33 87 
33 90 
33 91 
33 93 
33 95 
33 96 
33 98 
34 35 
34 36 
34 37 
34 38 
34 39 
34 40 
34 41 
34 42 
34 43 
34 44 
34 45 
34 46 
34 47 
34 48 
34 49 
34 50 
34 51 
34 56 
34 64 
34 69 
34 73 
34 83 
34 88 
34 92 
34 98 
35 36 
35 37 
35 38 
35 39 
35 40 
35 41 
35 42 
35 43 
35 44 
35 51 
35 52 
35 53 
35 54 
35 55 
35 56 
35 57 
35 58 
35 66 
35 74 
35 78 
35 82 
35 91 
35 95 
35 98 
36 37 
36 38 
36 39 
36 40 
36 41 
36 42 
36 43 
36 45 
36 46 
36 52 
36 54 
36 59 
36 60 
36 61 
36 62 
36 63 
36 64 
36 65 
36 71 
36 72 
36 73 
36 74 
36 75 
37 38 
37 39 
37 40 
37 41 
37 42 
37 43 
37 45 
37 53 
37 55 
37 60 
37 65 
37 66 
37 67 
37 68 
37 69 
37 70 
37 75 
37 87 
37 92 
37 95 
37 97 
37 99 
38 39 
38 40 
38 41 
38 42 
38 43 
38 46 
38 47 
38 55 
38 57 
38 59 
38 69 
38 71 
38 76 
38 77 
38 78 
38 79 
38 81 
38 85 
38 93 
38 94 
38 95 
39 40 
39 41 
39 42 
39 43 
39 47 
39 48 
39 60 
39 62 
39 68 
39 72 
39 76 
39 80 
39 81 
39 82 
39 83 
39 84 
39 86 
39 90 
39 91 
39 92 
40 41 
40 42 
40 43 
40 48 
40 49 
40 54 
40 58 
40 61 
40 64 
40 66 
40 72 
40 77 
40 79 
40 82 
40 85 
40 86 
40 87 
40 88 
40 99 
40 100 
41 42 
41 43 
41 44 
41 49 
41 56 
41 62 
41 63 
41 67 
41 70 
41 78 
41 79 
41 80 
41 81 
41 85 
41 86 
41 89 
41 96 
41 97 
42 43 
42 51 
42 52 
42 61 
42 67 
42 68 
42 71 
42 73 
42 76 
42 83 
42 87 
42 89 
42 90 
42 93 
42 94 
42 96 
42 97 
42 100 
43 50 
43 53 
43 58 
43 59 
43 63 
43 65 
43 75 
43 77 
43 80 
43 84 
43 91 
43 93 
43 94 
43 96 
43 98 
43 100 
44 45 
44 46 
44 47 
44 48 
44 49 
44 50 
44 51 
44 52 
44 53 
44 54 
44 55 
44 56 
44 57 
44 58 
44 63 
44 70 
44 79 
44 81 
44 86 
44 96 
44 97 
45 46 
45 47 
45 48 
45 49 
45 50 
45 51 
45 52 
45 53 
45 59 
45 60 
45 61 
45 62 
45 63 
45 64 
45 65 
45 66 
45 67 
45 68 
45 69 
45 70 
46 47 
46 48 
46 49 
46 50 
46 51 
46 54 
46 57 
46 65 
46 69 
46 71 
46 72 
46 73 
46 74 
46 75 
46 81 
46 85 
46 93 
46 94 
46 95 
47 48 
47 49 
47 50 
47 51 
47 55 
47 59 
47 62 
47 68 
47 71 
47 72 
47 76 
47 77 
47 78 
47 79 
47 86 
47 90 
47 91 
47 92 
48 49 
48 50 
48 51 
48 54 
48 60 
48 61 
48 66 
48 76 
48 77 
48 80 
48 81 
48 82 
48 83 
48 84 
48 85 
48 86 
48 87 
48 88 
49 50 
49 51 
49 56 
49 58 
49 62 
49 64 
49 67 
49 72 
49 78 
49 79 
49 80 
49 82 
49 85 
49 89 
49 99 
49 100 
50 51 
50 57 
50 58 
50 59 
50 65 
50 70 
50 74 
50 80 
50 84 
50 88 
50 89 
50 90 
50 94 
50 96 
50 98 
50 99 
51 61 
51 66 
51 68 
51 71 
51 74 
51 78 
51 82 
51 83 
51 89 
51 91 
51 94 
51 95 
51 97 
51 98 
51 100 
52 53 
52 54 
52 55 
52 56 
52 57 
52 58 
52 59 
52 60 
52 61 
52 62 
52 63 
52 64 
52 67 
52 73 
52 76 
52 87 
52 90 
52 93 
52 96 
53 54 
53 55 
53 56 
53 57 
53 58 
53 63 
53 65 
53 66 
53 67 
53 68 
53 69 
53 70 
53 75 
53 77 
53 84 
53 91 
53 93 
53 100 
54 55 
54 56 
54 57 
54 58 
54 61 
54 65 
54 66 
54 71 
54 72 
54 73 
54 74 
54 75 
54 77 
54 85 
54 86 
54 87 
54 88 
55 56 
55 57 
55 58 
55 59 
55 60 
55 71 
55 75 
55 76 
55 77 
55 78 
55 79 
55 87 
55 92 
55 95 
55 97 
55 99 
56 57 
56 58 
56 62 
56 64 
56 67 
56 69 
56 73 
56 78 
56 80 
56 83 
56 85 
56 88 
56 89 
56 92 
56 98 
57 58 
57 69 
57 70 
57 74 
57 81 
57 84 
57 85 
57 88 
57 89 
57 90 
57 93 
57 94 
57 95 
57 99 
58 59 
58 64 
58 65 
58 72 
58 79 
58 80 
58 82 
58 94 
58 96 
58 98 
58 99 
58 100 
59 60 
59 61 
59 62 
59 63 
59 64 
59 65 
59 71 
59 76 
59 77 
59 78 
59 79 
59 80 
59 94 
59 96 
59 98 
60 61 
60 62 
60 63 
60 64 
60 75 
60 76 
60 80 
60 81 
60 82 
60 83 
60 84 
60 87 
60 92 
60 95 
60 97 
60 99 
61 62 
61 63 
61 64 
61 66 
61 68 
61 71 
61 77 
61 83 
61 85 
61 86 
61 87 
61 88 
61 89 
61 94 
61 97 
61 100 
62 63 
62 64 
62 67 
62 68 
62 72 
62 78 
62 80 
62 85 
62 86 
62 89 
62 90 
62 91 
62 92 
63 64 
63 70 
63 75 
63 77 
63 79 
63 81 
63 84 
63 86 
63 91 
63 93 
63 96 
63 97 
63 100 
64 69 
64 72 
64 73 
64 79 
64 82 
64 83 
64 88 
64 92 
64 98 
64 99 
64 100 
65 66 
65 67 
65 68 
65 69 
65 70 
65 71 
65 72 
65 73 
65 74 
65 75 
65 80 
65 94 
65 96 
65 98 
66 67 
66 68 
66 69 
66 70 
66 74 
66 77 
66 78 
66 82 
66 85 
66 86 
66 87 
66 88 
66 91 
66 95 
66 98 
67 68 
67 69 
67 70 
67 73 
67 76 
67 78 
67 80 
67 85 
67 87 
67 89 
67 90 
67 93 
67 96 
68 69 
68 70 
68 71 
68 72 
68 83 
68 86 
68 89 
68 90 
68 91 
68 92 
68 94 
68 97 
68 100 
69 70 
69 73 
69 81 
69 83 
69 85 
69 88 
69 92 
69 93 
69 94 
69 95 
69 98 
70 74 
70 79 
70 81 
70 84 
70 86 
70 88 
70 89 
70 90 
70 96 
70 97 
70 99 
71 72 
71 73 
71 74 
71 75 
71 76 
71 77 
71 78 
71 79 
71 83 
71 89 
71 94 
71 97 
71 100 
72 73 
72 74 
72 75 
72 79 
72 82 
72 86 
72 90 
72 91 
72 92 
72 99 
72 100 
73 74 
73 75 
73 76 
73 83 
73 87 
73 88 
73 90 
73 92 
73 93 
73 96 
73 98 
74 75 
74 78 
74 82 
74 84 
74 88 
74 89 
74 90 
74 91 
74 95 
74 98 
74 99 
75 77 
75 84 
75 87 
75 91 
75 92 
75 93 
75 95 
75 97 
75 99 
75 100 
76 77 
76 78 
76 79 
76 80 
76 81 
76 82 
76 83 
76 84 
76 87 
76 90 
76 93 
76 96 
77 78 
77 79 
77 84 
77 85 
77 86 
77 87 
77 88 
77 91 
77 93 
77 100 
78 79 
78 80 
78 82 
78 85 
78 89 
78 91 
78 95 
78 98 
79 81 
79 82 
79 86 
79 96 
79 97 
79 99 
79 100 
80 81 
80 82 
80 83 
80 84 
80 85 
80 89 
80 94 
80 96 
80 98 
81 82 
81 83 
81 84 
81 85 
81 86 
81 93 
81 94 
81 95 
81 96 
81 97 
82 83 
82 84 
82 91 
82 95 
82 98 
82 99 
82 100 
83 84 
83 88 
83 89 
83 92 
83 94 
83 97 
83 98 
83 100 
84 88 
84 89 
84 90 
84 91 
84 93 
84 99 
84 100 
85 86 
85 87 
85 88 
85 89 
85 93 
85 94 
85 95 
86 87 
86 88 
86 90 
86 91 
86 92 
86 96 
86 97 
87 88 
87 90 
87 92 
87 93 
87 95 
87 96 
87 97 
87 99 
88 89 
88 90 
88 92 
88 98 
88 99 
89 90 
89 94 
89 97 
89 99 
89 100 
90 91 
90 92 
90 93 
90 96 
90 99 
91 92 
91 93 
91 95 
91 98 
91 100 
92 95 
92 97 
92 98 
92 99 
93 94 
93 95 
93 96 
93 100 
94 95 
94 96 
94 97 
94 98 
94 100 
95 97 
95 98 
95 99 
96 97 
96 98 
97 99 
97 100 
99 100 
